c status 288 1469392997055
c status 197 1469392997084
c status 179 1469392998621
c status 175 1469392998760
c status 169 1469392998939
c status 166 1469392998968
c status 163 1469393005519
s td 89 163 352
b 1 233 239 120
b 2 22 18 19 21 20 23 344 346 119 115 116 118 55 112 341 59 42 41 54 60 38 36 47 213 317 314 46 48 40 302 180 57 52 225 62 202 147 67 131 66 117 345 63 169 43 37 136 44 159 177 122 160 161 175 173 174 151 178 156 321 343 123 163 155 157 200 206 196 129 195 197 183 193 153 201 203 194 333
b 3 189 18 21 115 118 54 46 48 152 160 174 151 196
b 4 18 19 21 20 23 344 342 346 119 115 116 118 55 112 341 59 42 179 41 54 60 111 6 38 36 47 14 213 51 49 317 314 46 48 40 302 247 180 258 57 134 52 225 62 202 147 67 154 131 66 117 345 63 169 56 43 37 136 44 152 159 177 122 160 161 175 173 174 151 178 156 321 343 15 123 163 155 157 205 200 206 196 129 195 197 183 193 153 201 204 203 194 333
b 5 19 21 20 23 344 342 346 119 115 116 118 55 112 341 59 110 42 179 41 54 60 111 6 38 36 47 65 14 236 213 51 49 317 314 46 48 40 302 247 180 258 57 134 52 225 62 202 316 300 147 158 67 154 131 66 117 345 63 169 56 43 37 136 44 198 152 159 177 122 160 161 175 173 174 151 178 156 321 192 343 126 15 123 163 155 157 205 200 206 196 129 195 197 133 183 193 153 201 204 203 194 333 352
b 6 21 20 23 344 342 210 346 119 115 116 118 58 69 55 112 341 59 110 42 179 41 54 60 111 6 38 36 47 65 14 236 213 51 49 317 314 319 128 46 48 40 302 247 180 258 57 134 52 64 225 62 202 316 300 147 158 67 154 131 66 117 345 295 63 304 169 56 43 37 136 44 198 291 162 130 152 3 159 177 122 160 161 175 173 174 151 310 178 156 321 192 343 126 15 123 163 155 157 205 200 206 196 129 195 197 133 183 193 153 201 204 203 194 333 352
b 7 289 20 23 119 116 118 55 54 293 296 294 301 290 300 299 295 292 291 159 161 173 178 207 153 204 194
b 8 20 23 344 342 210 346 119 115 116 118 58 69 55 112 341 59 110 42 179 41 54 60 111 6 38 36 47 65 14 236 213 51 49 293 317 314 319 128 296 46 48 294 40 302 301 247 180 258 57 134 52 64 225 62 202 316 290 300 303 191 147 158 67 154 131 299 66 117 345 295 63 304 169 56 43 37 136 292 44 198 291 124 162 130 152 3 159 177 122 160 161 175 173 174 151 310 178 156 321 192 343 126 15 123 163 155 157 205 200 206 196 129 195 197 207 133 183 193 153 201 204 203 194 333 352
b 9 24 26 28 29 12 16 308 307 17 306 7 13 351 342 119 115 118 58 69 55 112 59 179 41 54 60 65 14 236 113 213 51 49 336 338 48 247 258 165 57 64 225 62 316 334 147 117 63 304 169 56 43 136 44 198 159 122 160 161 173 174 310 178 156 15 123 155 157 205 200 206 196 197 183 153 201 203 194
b 10 26 28 29 12 16 308 307 17 306 7 13 98 351 342 119 115 116 118 58 69 55 112 59 110 179 41 54 60 111 36 47 65 14 236 113 213 51 49 336 313 322 317 338 46 48 247 258 165 57 64 225 62 202 316 334 191 147 66 117 63 304 169 56 43 136 44 198 159 177 122 160 161 175 173 174 151 310 178 156 192 15 123 155 157 205 200 206 196 197 183 193 153 201 204 203 194 333 352
b 11 25 83 92 99 106 86 89 108 100 104 170 348 12 16 17 13 81 103 88 95 93 96 109 171 344 342 346 58 69 341 59 167 349 4 94 166 168 102 80 114 91 36 47 350 14 331 46 48 134 311 300 303 332 5 117 345 37 292 291 124 162 122 175 157 205 200 206 196 195 197 193 201 204 203 194
b 12 83 92 99 82 106 86 89 90 108 100 104 170 348 12 16 308 307 17 306 7 13 98 351 81 103 84 88 95 93 96 101 109 171 344 342 346 58 69 341 59 42 41 6 167 349 4 94 166 168 102 80 114 91 36 47 350 14 331 53 46 48 285 302 301 180 134 52 311 290 300 303 330 334 191 332 5 147 117 345 304 37 136 292 198 291 124 162 122 175 192 157 205 200 206 196 195 197 193 201 204 203 194
b 13 105 92 99 82 106 86 89 90 108 100 104 170 348 12 16 308 307 17 7 13 98 351 81 103 84 88 95 93 96 101 109 171 346 341 42 41 6 167 349 4 87 94 166 350 46 48 294 301 180 312 311 290 300 303 330 334 191 332 5 147 158 345 304 169 136 292 198 291 192 205 200 206 196 195 197 193 201 204 203 194
b 14 172 92 99 82 106 86 89 90 108 100 104 170 348 12 16 17 7 13 98 351 81 103 84 88 95 93 96 101 109 171 344 346 341 42 41 6 349 4 87 94 350 14 331 46 48 294 301 180 290 300 303 191 5 147 158 154 345 304 169 136 292 198 291 159 160 161 120 151 192 205 200 206 196 195 197 193 201 204 203 194
b 15 92 99 82 106 86 89 90 108 100 104 170 348 12 16 308 307 17 306 7 13 98 351 81 103 84 88 95 93 96 101 109 171 344 342 346 58 69 341 59 110 42 41 111 6 167 349 4 87 94 166 168 102 80 114 91 36 47 350 14 331 53 46 48 294 285 302 301 180 312 134 52 316 311 290 300 303 330 334 191 332 5 147 158 154 117 345 304 169 56 43 37 136 292 44 198 291 124 162 159 122 160 161 175 120 151 178 192 163 155 157 205 200 206 196 195 197 207 193 201 204 203 194
b 16 99 82 106 86 89 90 108 100 104 170 348 12 16 308 307 17 306 7 13 98 351 81 103 84 88 95 93 96 101 109 171 344 342 346 58 69 341 59 110 42 179 41 54 111 6 167 349 4 87 94 166 168 102 80 114 91 36 47 350 14 331 53 190 46 48 294 285 302 301 180 312 134 52 316 311 290 300 303 330 334 191 332 5 147 158 67 154 117 345 304 169 56 43 37 136 292 44 198 291 124 162 159 122 160 161 175 120 1 151 178 321 192 163 155 157 205 200 206 196 195 197 207 208 193 201 204 203 194
b 17 90 108 100 104 170 348 12 16 308 307 17 306 7 13 98 351 81 103 84 88 95 93 96 101 109 171 344 342 346 115 58 69 341 59 110 42 179 41 54 111 6 167 349 4 87 94 166 168 102 80 114 91 36 47 350 14 331 53 322 190 46 48 294 285 302 301 180 312 134 52 316 311 290 300 303 330 334 191 332 5 147 158 67 154 66 117 345 304 169 56 43 37 136 292 44 198 291 124 162 125 297 159 122 160 161 175 120 1 151 178 321 192 123 163 155 157 205 200 206 196 195 197 207 208 193 201 204 203 194
b 18 104 170 348 12 16 308 307 17 306 7 13 98 351 81 103 84 88 95 93 96 101 109 171 344 342 346 115 58 69 341 59 110 42 179 41 54 60 111 6 167 349 4 87 94 166 168 102 80 114 91 36 47 350 14 331 53 322 190 46 48 294 285 302 301 180 312 134 52 316 311 290 300 303 330 334 191 332 5 147 158 67 154 66 117 345 329 304 169 56 43 37 136 292 44 198 291 124 162 125 297 159 177 122 160 161 175 120 1 151 178 321 192 123 163 155 157 205 200 206 196 195 197 207 208 193 201 204 203 194
b 19 348 12 16 308 307 17 306 7 13 98 351 81 103 84 88 95 93 96 101 109 171 344 342 346 119 115 116 58 69 55 341 59 110 42 179 41 54 60 111 6 167 349 4 87 94 166 168 102 80 114 91 36 47 350 14 331 53 322 190 46 48 294 285 302 301 180 312 134 52 62 316 311 290 300 303 330 334 191 332 5 147 158 67 154 66 117 345 295 329 304 169 56 43 37 136 292 44 198 291 124 162 125 297 159 177 122 160 161 175 174 120 1 151 178 321 192 123 163 155 157 205 200 206 196 195 197 207 208 183 193 201 204 203 194
b 20 12 16 308 307 17 306 7 13 98 351 81 103 84 88 95 93 96 101 109 171 344 342 346 119 115 116 118 58 69 55 112 341 59 110 42 179 41 54 60 111 6 167 349 4 87 94 166 168 102 80 114 91 36 47 65 350 14 331 236 113 213 51 49 336 53 313 322 317 190 338 46 48 294 285 302 301 247 180 258 165 312 57 134 52 64 225 62 202 316 311 290 300 303 330 334 191 332 5 147 158 67 154 66 117 345 295 63 329 304 169 56 43 37 136 292 44 198 291 124 162 125 297 159 177 122 160 161 175 173 174 120 1 151 310 178 156 321 192 15 123 163 155 157 205 200 206 196 195 197 207 208 183 193 153 201 204 203 194 333 352
b 21 308 307 17 306 7 13 98 351 81 103 84 88 95 93 96 101 109 171 344 342 346 119 115 116 118 58 69 55 112 341 59 110 42 179 41 54 60 111 6 167 349 4 87 94 166 168 102 80 114 91 36 47 65 350 14 331 236 113 213 51 49 336 53 305 313 322 317 314 190 128 338 46 48 294 285 302 301 247 180 258 165 312 335 57 134 52 64 225 62 202 316 311 290 300 303 330 334 191 332 5 147 158 67 154 131 66 117 345 295 63 329 304 169 56 43 37 136 292 44 198 291 124 162 125 297 159 177 122 160 161 175 173 174 120 1 151 310 178 156 321 192 15 123 163 155 157 205 200 206 196 195 197 207 208 183 193 153 201 204 203 194 333 352
b 22 306 7 13 98 351 81 103 84 88 95 93 96 101 109 171 344 342 346 119 115 116 118 58 69 55 112 341 59 110 42 179 41 54 60 111 6 167 349 4 87 94 166 168 102 80 114 91 36 47 65 350 14 331 236 113 213 51 49 336 53 305 313 322 317 314 319 190 128 338 46 48 294 285 302 301 247 180 258 165 312 335 57 134 52 64 225 62 202 316 311 290 300 303 330 334 191 332 5 147 158 67 154 131 66 117 345 295 63 329 304 169 56 43 37 136 292 44 198 291 124 162 125 297 159 177 122 160 161 175 173 174 120 1 151 310 178 156 321 192 15 123 163 155 157 205 200 206 196 195 197 207 208 183 193 153 201 204 203 194 333 352
b 23 7 13 98 351 81 103 84 88 95 93 96 101 109 171 344 342 346 119 115 116 118 58 69 55 112 341 59 110 42 179 41 54 60 111 6 167 349 4 87 94 166 168 102 80 114 91 36 47 65 350 14 331 236 113 213 51 49 336 53 305 313 322 317 314 319 190 128 296 338 46 48 294 285 302 301 247 180 258 165 312 335 57 134 52 64 225 62 202 316 311 290 300 303 330 334 191 332 5 147 158 67 154 131 66 117 345 295 63 329 304 169 56 43 37 136 292 44 198 291 124 162 125 297 159 177 122 160 161 175 173 174 120 1 151 310 178 156 321 192 15 123 163 155 157 205 200 206 196 129 195 197 207 208 183 193 153 201 204 203 194 333 352
b 24 288 339 347 103 84 95 109 171 210 42 41 167 311 292 291 205
b 25 340 339 347 81 93 101 109 168 312 345 198 204
b 26 339 347 81 103 84 88 95 93 96 101 109 171 210 346 42 41 167 168 312 311 300 345 292 198 291 205 204
b 27 81 103 84 88 95 93 96 101 109 171 344 342 210 346 119 115 116 118 58 69 55 112 341 59 110 42 179 41 54 60 111 6 167 349 4 87 94 166 168 102 80 114 91 36 47 65 350 14 331 236 113 213 51 49 336 53 305 313 322 317 314 319 190 128 296 338 46 48 294 285 302 301 247 180 258 337 165 312 335 57 134 52 64 225 62 202 316 311 290 300 303 330 334 191 332 5 147 158 67 154 131 66 117 345 295 63 329 304 169 56 43 37 136 292 44 198 291 124 162 125 297 159 177 122 160 161 175 173 174 120 1 151 310 178 156 321 192 15 123 163 155 157 205 200 206 196 129 195 197 207 208 183 193 153 201 204 203 194 333 352
b 28 344 342 210 346 119 115 116 118 58 69 55 112 341 59 110 42 179 41 54 60 111 6 167 349 4 87 94 166 168 38 102 80 114 91 36 47 65 350 14 331 236 113 213 51 49 293 336 53 305 313 322 317 314 319 190 128 296 338 46 48 294 285 40 302 301 247 180 258 337 165 312 335 57 134 52 64 225 62 202 316 311 290 300 303 330 334 191 332 5 147 158 67 154 131 299 66 117 345 295 63 329 304 169 56 43 37 136 292 44 198 291 124 162 125 130 152 3 297 159 177 122 160 161 175 173 174 120 1 151 310 178 156 321 192 343 126 15 123 163 155 157 205 200 206 196 129 195 197 207 133 208 183 193 153 201 204 203 194 333 352
b 29 210 346 119 115 116 118 58 69 55 112 341 59 110 42 179 41 54 60 111 6 167 349 4 87 94 166 168 38 102 80 114 91 36 47 65 350 14 331 236 113 213 51 49 293 336 53 305 313 322 317 314 319 190 128 296 338 46 48 294 285 40 302 301 247 180 258 337 165 312 335 57 134 52 64 225 62 202 316 311 290 300 303 330 334 191 332 5 147 158 67 154 131 299 66 117 345 295 63 329 304 169 56 43 37 136 292 44 198 291 124 162 125 130 152 3 297 159 177 122 160 161 175 173 174 120 1 151 310 178 156 321 192 343 126 176 15 123 163 155 157 205 200 206 196 129 195 197 207 133 208 183 193 153 201 204 203 194 333 352
b 30 119 115 116 118 58 69 55 112 341 59 110 42 179 41 54 60 111 6 167 349 4 87 94 166 168 38 102 80 114 91 36 47 65 350 14 331 236 113 213 51 49 293 336 53 305 313 322 317 314 319 190 128 296 338 46 48 294 285 40 302 301 247 180 258 337 165 312 335 57 134 52 64 185 225 62 202 316 311 290 300 303 330 334 191 332 5 147 158 67 154 131 299 66 117 345 295 63 329 304 169 56 43 37 136 292 44 198 291 124 162 125 130 152 3 297 159 177 122 160 161 175 173 174 97 120 1 151 310 178 107 156 321 85 192 343 126 176 15 123 163 155 157 205 200 206 196 129 195 197 207 133 208 183 193 153 201 204 203 194 333 352
b 31 116 118 58 69 55 112 341 59 110 42 179 41 54 60 111 6 167 349 4 87 94 166 168 38 102 80 114 91 36 47 65 350 14 331 236 113 213 51 49 293 336 53 305 315 313 322 317 314 319 190 128 296 338 46 48 294 285 40 302 301 247 180 258 337 165 312 335 57 134 52 64 185 225 62 202 316 311 290 300 303 330 334 191 332 5 147 158 67 154 131 299 66 117 345 295 63 329 304 169 56 43 37 136 292 44 198 291 124 162 125 130 152 3 297 159 177 122 160 161 175 173 174 97 120 1 151 310 178 107 156 321 85 192 343 126 176 15 123 163 155 157 61 205 200 206 196 129 195 197 207 133 208 183 193 153 201 204 203 194 333 352
b 32 110 42 179 41 54 60 111 6 167 349 4 87 94 166 168 38 102 80 114 91 36 47 65 350 14 331 236 113 213 51 49 293 336 53 305 315 313 322 317 314 319 190 128 296 338 182 46 48 294 285 40 302 301 247 180 258 337 165 312 335 57 134 52 64 185 225 62 202 316 311 290 300 303 330 334 191 332 5 147 158 67 154 131 299 66 117 345 295 63 329 304 169 56 43 37 136 292 44 198 291 124 162 125 130 152 3 297 159 177 122 160 161 175 173 174 97 120 1 151 310 178 181 107 156 321 85 192 343 126 176 15 123 163 155 157 61 205 200 206 196 129 195 197 207 133 208 183 193 153 201 204 203 194 333 352
b 33 8 11 9 10 127 74 283 284 323 72 70 141 75 138 71 144 148 4 236 213 51 53 305 315 313 128 296 46 48 247 258 57 52 225 62 202 154 131 66 329 304 169 43 136 44 198 124 135 130 151 310 163 205 200 206 196 195 197 207 133 208 193 204 203 352
b 34 11 9 10 127 74 283 284 68 323 72 70 141 149 75 138 71 144 146 148 224 4 236 213 51 53 305 315 313 322 319 128 296 46 48 294 247 258 165 57 134 52 64 225 62 202 330 154 131 299 66 295 63 329 304 169 43 37 136 44 198 291 124 135 286 125 130 151 310 192 343 126 163 205 200 206 196 129 195 197 207 133 208 193 201 204 203 194 352
b 35 45 9 10 309 320 74 70 138 298 148 51 49 46 48 247 180 258 64 185 147 124 207 133 204 203 194
b 36 9 10 309 320 127 74 283 284 68 323 72 70 141 149 75 138 298 71 144 146 148 224 4 65 236 213 51 49 53 305 315 313 322 319 128 296 46 48 294 301 247 180 258 165 57 134 52 64 185 225 62 202 290 300 330 147 154 131 299 66 295 63 329 304 169 43 37 136 44 198 291 124 135 286 125 130 151 310 192 343 126 163 205 200 206 196 129 195 197 207 133 208 193 201 204 203 194 333 352
b 37 31 33 150 34 35 77 78 287 30 32 127 74 68 323 70 75 138 298 71 139 146 148 224 6 349 102 114 65 350 236 213 51 49 53 313 322 317 319 40 302 337 165 312 335 134 52 64 225 62 202 191 5 147 158 66 295 63 329 43 37 44 198 124 135 125 130 297 27 181 321 192 343 126 15 163 205 200 206 196 129 207 133 208 153 201 204 203 194 333 352
b 38 33 150 34 35 77 78 287 30 32 127 74 68 323 72 70 75 138 298 71 139 146 148 224 6 349 102 114 65 350 14 331 236 213 51 49 53 313 322 317 319 40 302 337 165 312 335 134 52 64 225 62 202 191 5 147 158 154 66 295 63 329 169 43 37 136 44 198 124 135 125 130 3 297 27 181 321 192 343 126 15 163 205 200 206 196 129 195 197 207 133 208 153 201 204 203 194 333 352
b 39 150 34 35 77 78 287 188 30 32 127 74 68 323 72 70 149 75 138 298 71 139 146 148 224 6 167 349 166 168 102 114 65 350 14 331 236 213 51 49 53 313 322 317 319 40 302 337 165 312 335 134 52 64 225 62 202 191 5 147 158 154 66 295 63 329 169 43 37 136 44 198 124 135 162 125 130 3 297 27 181 156 321 192 343 126 15 163 155 157 205 200 206 196 129 195 197 207 133 208 153 201 204 203 194 333 352
b 40 76 79 34 35 77 78 287 188 30 32 309 320 74 68 72 70 141 145 75 138 298 71 144 139 142 146 148 224 87 94 38 102 114 36 47 65 236 113 213 51 49 53 46 48 302 165 52 185 225 62 202 300 330 154 299 63 43 44 198 125 186 151 321 39 15 205 200 206 196 195 208 193 201 204 203 194
b 41 79 34 35 77 78 287 188 30 32 309 320 74 283 284 68 72 70 141 145 149 75 138 298 71 144 139 142 146 148 224 87 94 38 102 114 36 47 65 236 113 213 51 49 53 46 48 302 165 52 64 185 225 62 202 300 330 154 299 63 43 37 44 198 125 186 50 151 321 343 39 15 61 205 200 206 196 195 197 208 193 201 204 203 194
b 42 34 35 77 78 287 188 30 32 309 320 127 74 283 284 68 323 72 70 141 145 149 75 138 298 71 144 139 142 146 148 224 6 167 349 87 94 166 168 38 102 114 36 47 65 350 14 331 236 113 213 51 49 293 53 313 322 317 319 296 46 48 40 302 337 165 312 335 134 52 64 185 225 62 202 300 330 191 5 147 158 154 299 66 295 63 329 169 43 37 136 44 198 124 135 162 125 130 3 297 186 50 27 151 181 156 321 192 343 126 39 15 163 155 157 61 205 200 206 196 129 195 197 207 133 208 193 153 201 204 203 194 333 352
b 43 287 188 30 32 309 320 127 74 283 284 68 323 72 70 141 145 149 75 138 298 71 144 139 142 146 148 224 6 167 349 87 94 166 168 38 102 114 36 47 65 350 14 331 236 113 213 51 49 293 53 313 322 317 319 296 46 48 40 302 247 258 337 165 312 335 134 52 64 185 225 62 202 300 330 191 5 147 158 154 299 66 295 63 329 169 43 37 136 44 198 124 135 162 125 130 3 297 186 50 27 151 181 156 321 192 343 126 39 15 163 155 157 61 205 200 206 196 129 195 197 207 133 208 193 153 201 204 203 194 333 352
b 44 188 30 32 309 320 127 74 283 284 68 323 72 70 141 145 149 75 138 298 71 144 139 142 146 148 224 6 167 349 87 94 166 168 38 102 80 114 91 36 47 65 350 14 331 236 113 213 51 49 293 53 313 322 317 319 296 46 48 285 40 302 247 258 337 165 312 335 134 52 64 185 225 62 202 300 330 191 5 147 158 154 299 66 295 63 329 169 43 37 136 44 198 124 135 162 125 130 187 3 297 186 50 27 151 181 156 321 192 343 126 39 15 164 163 155 157 61 205 200 206 196 129 195 197 207 133 208 193 153 201 204 203 194 333 352
b 45 280 269 30 32 127 283 68 72 236 213 51 49 302 247 180 225 62 202 191 147 158 169 37 136 135 126 206 133 208
b 46 269 30 32 127 283 284 68 72 236 213 51 49 302 247 180 258 225 62 202 191 147 158 169 37 136 135 126 206 133 208
b 47 30 32 309 320 127 74 283 284 68 323 72 70 141 145 149 75 138 298 71 144 139 142 146 148 224 6 167 349 87 94 166 168 38 102 80 114 91 36 47 65 350 14 331 236 113 213 51 49 293 53 313 322 317 319 296 46 48 285 40 302 247 180 258 337 165 312 335 134 52 64 185 225 62 202 300 330 191 5 147 158 154 299 66 295 63 329 169 43 37 136 44 198 124 135 162 125 130 187 3 297 186 50 27 151 181 156 321 192 343 126 39 15 164 163 155 157 61 205 200 206 196 129 195 197 207 133 208 193 153 201 204 203 194 333 352
b 48 309 320 127 74 283 284 68 323 72 70 141 145 149 75 138 298 71 144 139 142 146 148 224 6 167 349 4 87 94 166 168 38 102 80 114 91 36 47 65 350 14 331 236 113 213 51 49 293 53 305 315 313 322 317 319 128 296 46 48 294 285 40 302 301 247 180 258 337 165 312 335 57 134 52 64 185 225 62 202 290 300 330 191 5 147 158 154 131 299 66 295 63 329 304 169 43 37 136 44 198 291 2 124 135 162 286 125 130 187 3 297 186 50 27 151 310 181 156 321 192 343 126 39 15 164 163 155 157 61 205 200 206 196 129 195 197 207 133 208 193 153 201 204 203 194 333 352
b 49 127 74 283 284 68 323 72 70 141 145 149 75 138 298 71 144 139 142 146 148 224 6 167 349 4 87 94 166 168 38 102 80 114 91 36 47 65 350 14 331 236 113 213 51 49 293 53 305 315 313 322 317 319 190 128 296 46 48 294 285 40 302 301 247 180 258 337 165 312 335 57 134 52 64 185 225 62 202 290 300 330 191 5 147 158 67 154 131 299 66 295 63 329 304 169 43 37 136 292 44 198 291 2 124 135 162 286 125 130 187 3 297 186 50 27 151 310 181 156 321 85 192 343 126 39 15 164 163 155 157 61 205 200 206 196 129 195 197 207 133 208 193 153 201 204 203 194 333 352
b 50 74 283 284 68 323 72 70 141 145 149 75 138 298 71 144 139 142 146 148 224 6 167 349 4 87 94 166 168 38 102 80 114 91 36 47 65 350 14 331 236 113 213 51 49 293 53 305 315 313 322 317 319 190 128 296 46 48 294 285 40 302 301 247 180 258 337 165 312 335 57 134 52 64 185 225 62 202 290 300 330 191 5 147 158 67 154 131 299 66 295 63 329 304 169 43 37 136 292 44 198 291 2 124 135 162 286 125 130 187 3 297 186 50 27 151 310 181 156 321 73 85 192 343 126 39 15 164 163 155 157 61 205 200 206 196 129 195 197 207 133 208 193 153 201 204 203 194 333 352
b 51 137 318 325 143 324 326 327 72 70 141 145 138 144 139 142 146 148 65 51 336 317 314 182 294 285 301 337 165 64 303 334 299 66 295 43 44 291 2 162 125 130 73 192 343 39 163 200 206 196 197 207 208 193 201 194 333
b 52 328 318 325 324 326 327 323 145 142 315 317 319 302 316 311 329 286 3 151 207 203
b 53 318 325 143 324 326 327 323 72 70 141 145 138 144 139 142 146 148 65 51 336 315 322 317 314 319 182 294 285 302 301 337 165 64 316 311 303 334 299 66 295 329 43 44 291 2 162 286 125 130 3 151 73 192 343 39 163 200 206 196 197 207 208 193 201 203 194 333
b 54 325 143 324 326 327 323 72 70 141 145 149 138 298 144 139 142 146 148 65 51 336 315 313 322 317 314 319 128 338 182 294 285 40 302 301 337 165 335 64 316 311 303 334 332 67 154 131 299 66 295 329 304 43 292 44 291 2 162 286 125 130 3 151 73 192 343 39 163 205 200 206 196 129 197 207 208 193 201 204 203 194 333
b 55 143 324 326 327 323 72 70 141 145 149 138 298 144 139 142 146 148 65 51 336 315 313 322 317 314 319 128 338 182 294 285 40 302 301 337 165 335 64 316 311 303 334 332 67 154 131 299 66 295 329 304 43 292 44 291 2 162 286 125 130 3 151 73 192 343 39 140 163 205 200 206 196 129 197 207 208 193 201 204 203 194 333
b 56 324 326 327 323 72 70 141 145 149 75 138 298 71 144 139 142 146 148 224 65 51 49 293 336 315 313 322 317 314 319 128 338 182 294 285 40 302 301 337 165 312 335 64 316 311 303 334 332 67 154 131 299 66 295 329 304 43 292 44 291 2 162 286 125 130 3 297 151 310 73 192 343 39 140 163 205 200 206 196 129 195 197 207 208 193 201 204 203 194 333
b 57 184 72 71 139 146 224 336 53 337 300 50 27 73 85 343 39 176 15 61 183 333 352
b 58 323 72 70 141 145 149 75 138 298 71 144 139 142 146 148 224 6 167 349 4 87 94 166 168 38 102 80 114 91 36 47 65 350 14 331 236 113 213 51 49 293 336 53 305 315 313 322 317 314 319 190 128 296 338 182 46 48 294 285 40 302 301 247 180 258 337 165 312 335 57 134 52 64 185 225 62 202 316 311 290 300 303 330 334 191 332 5 147 158 67 154 131 299 66 117 345 295 63 329 304 169 56 43 37 136 292 44 198 291 2 124 135 162 286 125 130 187 3 297 186 50 27 122 173 151 310 181 156 321 73 85 192 343 126 39 15 140 164 163 155 157 61 205 200 206 196 129 195 197 207 133 208 193 153 201 204 203 194 333 352
b 59 72 70 141 145 149 75 138 298 71 144 139 142 146 148 224 6 167 349 4 87 94 166 168 38 102 80 114 91 36 47 65 350 14 331 236 113 213 51 49 293 336 53 305 315 313 322 317 314 319 190 128 296 338 182 46 48 294 285 40 302 301 247 180 258 337 165 312 335 57 134 52 64 185 225 62 202 316 311 290 300 303 330 334 191 332 5 147 158 67 154 131 299 66 117 345 295 63 329 304 169 56 43 37 136 292 44 198 291 2 124 135 162 286 125 130 187 3 297 186 50 27 122 173 1 151 310 181 156 321 73 85 192 343 126 39 176 15 140 164 163 155 157 61 205 200 206 196 129 195 197 207 133 208 183 193 153 201 204 203 194 333 352
b 60 6 167 349 4 87 94 166 168 38 102 80 114 91 36 47 65 350 14 331 236 113 213 51 49 293 336 53 305 315 313 322 317 314 319 190 128 296 338 182 46 48 294 285 40 302 301 247 180 258 337 165 312 335 57 134 52 64 185 225 62 202 316 311 290 300 303 330 334 191 332 5 147 158 67 154 131 299 66 117 345 295 63 329 304 169 56 43 37 136 292 44 198 291 2 124 135 162 286 125 130 187 152 3 297 186 50 27 159 177 122 160 161 175 173 174 97 120 1 151 310 178 181 107 156 321 73 85 192 343 126 39 176 15 140 164 123 163 155 157 61 205 200 206 196 129 195 197 207 133 208 183 193 153 201 204 203 194 333 352
b 61 217 230 227 229 228 279 215 216 226 152 164
b 62 230 227 276 282 229 228 275 281 277 279 215 231 232 216 226 214 209 187 152 50 1 73 85 343 39 176 140 164 61
b 63 261 272 282 278 275 281 249 212 237 223 120
b 64 227 276 282 229 228 278 275 281 277 279 215 231 232 216 226 214 209 199 187 152 50 1 73 85 343 39 176 140 164 61
b 65 276 282 229 228 278 275 281 277 279 249 215 231 232 271 211 216 226 274 121 214 209 199 212 2 125 187 152 3 297 50 1 73 85 343 39 176 140 164 61 333
b 66 282 229 228 278 275 281 277 279 249 215 231 232 271 211 216 226 274 121 214 209 199 212 237 223 2 286 125 187 152 3 297 50 120 1 73 85 343 39 176 140 164 61 333
b 67 278 275 281 277 279 249 215 218 231 232 271 211 216 226 274 121 214 209 199 212 237 223 2 286 125 187 152 3 297 50 120 1 310 321 73 85 343 39 176 15 140 164 61 333 352
b 68 221 267 220 270 222 263 265 264 266 268 273 231 232 271 211 214 251 209 199 212 253 2 286 125 187 97 310 343 176 140 333 352
b 69 267 220 219 270 222 263 265 264 266 268 273 231 232 271 211 226 214 251 209 199 212 253 2 286 125 187 97 1 310 107 73 343 176 140 333 352
b 70 262 220 219 270 222 263 265 264 266 268 273 218 271 211 216 226 274 132 199 286 3 297 321 85 39 176 15 140 333 352
b 71 220 219 270 222 263 265 264 266 268 273 218 231 232 271 211 216 226 274 132 214 251 209 199 212 253 2 286 125 187 152 3 297 97 1 310 107 321 73 85 343 39 176 15 140 164 61 333 352
b 72 219 270 222 263 265 264 266 268 273 215 218 231 232 271 211 216 226 274 121 132 214 251 209 199 212 253 2 286 125 187 152 3 297 97 1 310 107 321 73 85 343 39 176 15 140 164 61 333 352
b 73 270 222 263 265 264 266 268 273 249 215 218 231 232 271 211 216 226 274 121 132 214 251 209 199 212 253 2 286 125 187 152 3 297 97 1 310 107 321 73 85 343 39 176 15 140 164 61 333 352
b 74 222 263 265 264 266 268 273 249 215 218 231 232 271 211 216 226 274 121 132 214 251 209 199 212 253 2 286 125 187 152 3 297 50 97 1 310 107 321 73 85 343 39 176 15 140 164 61 333 352
b 75 265 264 266 268 273 249 215 218 231 232 271 211 216 226 274 121 132 214 251 252 209 199 212 253 255 2 286 125 187 152 3 297 50 27 97 1 310 107 321 73 85 343 39 176 15 140 164 61 333 352
b 76 266 268 273 249 215 218 231 232 271 211 216 226 274 121 132 214 251 252 209 199 212 223 253 255 2 286 125 187 152 3 297 50 27 97 1 310 107 321 73 85 343 39 176 15 140 164 61 333 352
b 77 249 215 218 231 232 271 211 216 226 274 121 132 214 251 252 209 199 212 237 223 253 255 2 286 125 187 152 3 297 50 27 97 120 1 310 107 321 73 85 343 39 176 15 140 164 61 333 352
b 78 239 240 241 254 234 235 238 250 245 246 248 251 252 237 253 255 120
b 79 254 234 235 238 250 245 246 248 257 256 121 132 251 252 199 212 237 223 253 255 97 120 1 310 107 321 343 15 333
b 80 242 243 244 259 260 234 235 238 245 246 248 257 256 237 255 120
b 81 243 244 259 260 234 235 238 245 246 248 257 256 121 252 237 255 120
b 82 244 259 260 234 235 238 245 246 248 257 256 121 252 237 255 120 1
b 83 259 260 234 235 238 250 245 246 248 257 256 121 132 251 252 237 255 97 120 1 310 107 321 343 15 140 61 352
b 84 260 234 235 238 250 245 246 248 257 256 121 132 214 251 252 199 237 223 255 97 120 1 310 107 321 343 15 140 61 333 352
b 85 234 235 238 250 245 246 248 257 256 121 132 214 251 252 199 212 237 223 253 255 97 120 1 310 107 321 343 15 140 61 333 352
b 86 250 245 246 248 257 256 121 132 214 251 252 199 212 237 223 253 255 187 97 120 1 310 107 321 343 15 140 61 333 352
b 87 257 256 121 132 214 251 252 209 199 212 237 223 253 255 187 97 120 1 310 107 321 343 15 140 61 333 352
b 88 121 132 214 251 252 209 199 212 237 223 253 255 2 124 135 162 286 125 130 187 152 3 297 186 50 27 159 177 122 160 161 175 173 174 97 120 1 151 310 178 181 107 156 321 73 85 192 343 126 39 176 15 140 164 123 163 155 157 61 205 200 206 196 129 195 197 133 208 183 193 153 201 204 203 194 333 352
b 89 199 212 237 223 253 255 2 124 135 162 286 125 130 187 152 3 297 186 50 27 159 177 122 160 161 175 173 174 97 120 1 151 310 178 181 107 156 321 73 85 192 343 126 39 176 15 140 164 123 163 155 157 61 205 200 206 196 129 195 197 207 133 208 183 193 153 201 204 203 194 333 352
1 78
78 79
79 85
85 84
85 86
84 83
86 87
87 77
77 76
76 75
75 74
74 73
73 72
72 71
77 67
67 66
66 65
77 88
88 89
89 60
60 32
32 31
31 30
30 29
29 28
28 27
27 23
23 22
22 21
21 20
60 59
59 58
58 50
50 49
49 48
20 19
48 47
47 44
44 43
43 42
19 18
18 17
28 8
17 16
16 15
8 6
42 39
6 5
15 12
39 38
48 36
20 10
5 4
38 37
58 56
36 34
42 41
56 55
55 54
15 14
15 13
10 9
4 2
41 40
12 11
54 53
34 33
53 51
71 69
69 68
71 70
47 46
65 64
46 45
64 62
27 26
8 7
36 35
59 57
53 52
83 82
82 81
81 80
26 24
4 3
26 25
62 61
66 63
